p cnf 281 810
c inputs: 1 2 3 4 5 6 7 8 9 10 11
c variables for gates: 12 ... 270
c outputs: 271 272 273 274 275 276 277 278 279 280 281
c random input: 1 2 -3 -4 -5 6 -7 8 -9 10 11
12 -1 -6 0
-12 1 0
-12 6 0
13 -1 -7 0
-13 1 0
-13 7 0
14 -1 -8 0
-14 1 0
-14 8 0
15 -1 -9 0
-15 1 0
-15 9 0
16 -1 -10 0
-16 1 0
-16 10 0
17 -1 -11 0
-17 1 0
-17 11 0
18 -2 -6 0
-18 2 0
-18 6 0
19 -2 -7 0
-19 2 0
-19 7 0
20 -2 -8 0
-20 2 0
-20 8 0
21 -2 -9 0
-21 2 0
-21 9 0
22 -2 -10 0
-22 2 0
-22 10 0
23 -2 -11 0
-23 2 0
-23 11 0
24 -3 -6 0
-24 3 0
-24 6 0
25 -3 -7 0
-25 3 0
-25 7 0
26 -3 -8 0
-26 3 0
-26 8 0
27 -3 -9 0
-27 3 0
-27 9 0
28 -3 -10 0
-28 3 0
-28 10 0
29 -3 -11 0
-29 3 0
-29 11 0
30 -4 -6 0
-30 4 0
-30 6 0
31 -4 -7 0
-31 4 0
-31 7 0
32 -4 -8 0
-32 4 0
-32 8 0
33 -4 -9 0
-33 4 0
-33 9 0
34 -4 -10 0
-34 4 0
-34 10 0
35 -4 -11 0
-35 4 0
-35 11 0
36 -5 -6 0
-36 5 0
-36 6 0
37 -5 -7 0
-37 5 0
-37 7 0
38 -5 -8 0
-38 5 0
-38 8 0
39 -5 -9 0
-39 5 0
-39 9 0
40 -5 -10 0
-40 5 0
-40 10 0
41 -5 -11 0
-41 5 0
-41 11 0
42 -31 -36 0
-42 31 0
-42 36 0
43 -36 31 0
-43 36 0
-43 -31 0
44 -31 36 0
-44 31 0
-44 -36 0
45 43 44 0
-45 -43 0
-45 -44 0
46 -37 -42 0
-46 37 0
-46 42 0
47 -32 -42 0
-47 32 0
-47 42 0
48 -32 -37 0
-48 32 0
-48 37 0
49 48 47 0
-49 -48 0
-49 -47 0
50 46 -49 0
-50 -46 0
-50 49 0
51 -37 32 0
-51 37 0
-51 -32 0
52 -32 37 0
-52 32 0
-52 -37 0
53 51 52 0
-53 -51 0
-53 -52 0
54 -42 -53 0
-54 42 0
-54 53 0
55 42 53 0
-55 -42 0
-55 -53 0
56 55 54 0
-56 -55 0
-56 -54 0
57 -38 50 0
-57 38 0
-57 -50 0
58 38 50 0
-58 -38 0
-58 -50 0
59 -38 -50 0
-59 38 0
-59 50 0
60 58 59 0
-60 -58 0
-60 -59 0
61 -30 -25 0
-61 30 0
-61 25 0
62 -30 25 0
-62 30 0
-62 -25 0
63 -25 30 0
-63 25 0
-63 -30 0
64 63 62 0
-64 -63 0
-64 -62 0
65 -61 45 0
-65 61 0
-65 -45 0
66 -26 -61 0
-66 26 0
-66 61 0
67 -26 45 0
-67 26 0
-67 -45 0
68 66 67 0
-68 -66 0
-68 -67 0
69 65 -68 0
-69 -65 0
-69 68 0
70 26 45 0
-70 -26 0
-70 -45 0
71 -26 -45 0
-71 26 0
-71 45 0
72 71 70 0
-72 -71 0
-72 -70 0
73 -61 -72 0
-73 61 0
-73 72 0
74 61 72 0
-74 -61 0
-74 -72 0
75 73 74 0
-75 -73 0
-75 -74 0
76 56 69 0
-76 -56 0
-76 -69 0
77 -27 69 0
-77 27 0
-77 -69 0
78 -27 56 0
-78 27 0
-78 -56 0
79 78 77 0
-79 -78 0
-79 -77 0
80 76 -79 0
-80 -76 0
-80 79 0
81 27 56 0
-81 -27 0
-81 -56 0
82 -27 -56 0
-82 27 0
-82 56 0
83 81 82 0
-83 -81 0
-83 -82 0
84 69 -83 0
-84 -69 0
-84 83 0
85 -69 83 0
-85 69 0
-85 -83 0
86 84 85 0
-86 -84 0
-86 -85 0
87 80 60 0
-87 -80 0
-87 -60 0
88 -33 80 0
-88 33 0
-88 -80 0
89 -33 60 0
-89 33 0
-89 -60 0
90 88 89 0
-90 -88 0
-90 -89 0
91 -90 87 0
-91 90 0
-91 -87 0
92 33 60 0
-92 -33 0
-92 -60 0
93 -33 -60 0
-93 33 0
-93 60 0
94 92 93 0
-94 -92 0
-94 -93 0
95 -94 80 0
-95 94 0
-95 -80 0
96 94 -80 0
-96 -94 0
-96 80 0
97 95 96 0
-97 -95 0
-97 -96 0
98 -57 91 0
-98 57 0
-98 -91 0
99 -39 91 0
-99 39 0
-99 -91 0
100 -39 -57 0
-100 39 0
-100 57 0
101 100 99 0
-101 -100 0
-101 -99 0
102 -101 98 0
-102 101 0
-102 -98 0
103 39 -57 0
-103 -39 0
-103 57 0
104 -39 57 0
-104 39 0
-104 -57 0
105 103 104 0
-105 -103 0
-105 -104 0
106 91 -105 0
-106 -91 0
-106 105 0
107 -91 105 0
-107 91 0
-107 -105 0
108 107 106 0
-108 -107 0
-108 -106 0
109 -19 -24 0
-109 19 0
-109 24 0
110 -24 19 0
-110 24 0
-110 -19 0
111 -19 24 0
-111 19 0
-111 -24 0
112 110 111 0
-112 -110 0
-112 -111 0
113 -109 64 0
-113 109 0
-113 -64 0
114 -20 -109 0
-114 20 0
-114 109 0
115 -20 64 0
-115 20 0
-115 -64 0
116 114 115 0
-116 -114 0
-116 -115 0
117 113 -116 0
-117 -113 0
-117 116 0
118 20 64 0
-118 -20 0
-118 -64 0
119 -20 -64 0
-119 20 0
-119 64 0
120 119 118 0
-120 -119 0
-120 -118 0
121 -109 -120 0
-121 109 0
-121 120 0
122 109 120 0
-122 -109 0
-122 -120 0
123 121 122 0
-123 -121 0
-123 -122 0
124 117 75 0
-124 -117 0
-124 -75 0
125 -21 117 0
-125 21 0
-125 -117 0
126 -21 75 0
-126 21 0
-126 -75 0
127 125 126 0
-127 -125 0
-127 -126 0
128 124 -127 0
-128 -124 0
-128 127 0
129 21 75 0
-129 -21 0
-129 -75 0
130 -21 -75 0
-130 21 0
-130 75 0
131 129 130 0
-131 -129 0
-131 -130 0
132 117 -131 0
-132 -117 0
-132 131 0
133 -117 131 0
-133 117 0
-133 -131 0
134 132 133 0
-134 -132 0
-134 -133 0
135 128 86 0
-135 -128 0
-135 -86 0
136 -22 128 0
-136 22 0
-136 -128 0
137 -22 86 0
-137 22 0
-137 -86 0
138 136 137 0
-138 -136 0
-138 -137 0
139 -138 135 0
-139 138 0
-139 -135 0
140 22 86 0
-140 -22 0
-140 -86 0
141 -22 -86 0
-141 22 0
-141 86 0
142 141 140 0
-142 -141 0
-142 -140 0
143 128 -142 0
-143 -128 0
-143 142 0
144 -128 142 0
-144 128 0
-144 -142 0
145 144 143 0
-145 -144 0
-145 -143 0
146 97 139 0
-146 -97 0
-146 -139 0
147 -28 139 0
-147 28 0
-147 -139 0
148 -28 97 0
-148 28 0
-148 -97 0
149 148 147 0
-149 -148 0
-149 -147 0
150 146 -149 0
-150 -146 0
-150 149 0
151 28 97 0
-151 -28 0
-151 -97 0
152 -28 -97 0
-152 28 0
-152 97 0
153 152 151 0
-153 -152 0
-153 -151 0
154 -153 139 0
-154 153 0
-154 -139 0
155 153 -139 0
-155 -153 0
-155 139 0
156 154 155 0
-156 -154 0
-156 -155 0
157 150 108 0
-157 -150 0
-157 -108 0
158 -34 150 0
-158 34 0
-158 -150 0
159 -34 108 0
-159 34 0
-159 -108 0
160 158 159 0
-160 -158 0
-160 -159 0
161 157 -160 0
-161 -157 0
-161 160 0
162 34 108 0
-162 -34 0
-162 -108 0
163 -34 -108 0
-163 34 0
-163 108 0
164 162 163 0
-164 -162 0
-164 -163 0
165 -164 150 0
-165 164 0
-165 -150 0
166 164 -150 0
-166 -164 0
-166 150 0
167 166 165 0
-167 -166 0
-167 -165 0
168 161 102 0
-168 -161 0
-168 -102 0
169 -40 161 0
-169 40 0
-169 -161 0
170 -40 102 0
-170 40 0
-170 -102 0
171 169 170 0
-171 -169 0
-171 -170 0
172 -171 168 0
-172 171 0
-172 -168 0
173 40 102 0
-173 -40 0
-173 -102 0
174 -40 -102 0
-174 40 0
-174 102 0
175 174 173 0
-175 -174 0
-175 -173 0
176 161 -175 0
-176 -161 0
-176 175 0
177 -161 175 0
-177 161 0
-177 -175 0
178 177 176 0
-178 -177 0
-178 -176 0
179 -13 18 0
-179 13 0
-179 -18 0
180 -18 13 0
-180 18 0
-180 -13 0
181 179 180 0
-181 -179 0
-181 -180 0
182 -18 -13 0
-182 18 0
-182 13 0
183 -14 -112 0
-183 14 0
-183 112 0
184 14 112 0
-184 -14 0
-184 -112 0
185 183 184 0
-185 -183 0
-185 -184 0
186 -182 -185 0
-186 182 0
-186 185 0
187 182 185 0
-187 -182 0
-187 -185 0
188 186 187 0
-188 -186 0
-188 -187 0
189 -14 -182 0
-189 14 0
-189 182 0
190 -182 112 0
-190 182 0
-190 -112 0
191 -14 112 0
-191 14 0
-191 -112 0
192 191 190 0
-192 -191 0
-192 -190 0
193 189 -192 0
-193 -189 0
-193 192 0
194 -15 -123 0
-194 15 0
-194 123 0
195 15 123 0
-195 -15 0
-195 -123 0
196 195 194 0
-196 -195 0
-196 -194 0
197 193 -196 0
-197 -193 0
-197 196 0
198 -193 196 0
-198 193 0
-198 -196 0
199 198 197 0
-199 -198 0
-199 -197 0
200 -15 193 0
-200 15 0
-200 -193 0
201 193 123 0
-201 -193 0
-201 -123 0
202 -15 123 0
-202 15 0
-202 -123 0
203 201 202 0
-203 -201 0
-203 -202 0
204 200 -203 0
-204 -200 0
-204 203 0
205 -16 -134 0
-205 16 0
-205 134 0
206 16 134 0
-206 -16 0
-206 -134 0
207 205 206 0
-207 -205 0
-207 -206 0
208 -207 204 0
-208 207 0
-208 -204 0
209 207 -204 0
-209 -207 0
-209 204 0
210 209 208 0
-210 -209 0
-210 -208 0
211 -16 204 0
-211 16 0
-211 -204 0
212 204 134 0
-212 -204 0
-212 -134 0
213 -16 134 0
-213 16 0
-213 -134 0
214 212 213 0
-214 -212 0
-214 -213 0
215 211 -214 0
-215 -211 0
-215 214 0
216 -17 -145 0
-216 17 0
-216 145 0
217 17 145 0
-217 -17 0
-217 -145 0
218 216 217 0
-218 -216 0
-218 -217 0
219 215 -218 0
-219 -215 0
-219 218 0
220 -215 218 0
-220 215 0
-220 -218 0
221 219 220 0
-221 -219 0
-221 -220 0
222 -17 215 0
-222 17 0
-222 -215 0
223 145 215 0
-223 -145 0
-223 -215 0
224 -17 145 0
-224 17 0
-224 -145 0
225 224 223 0
-225 -224 0
-225 -223 0
226 -225 222 0
-226 225 0
-226 -222 0
227 -23 -156 0
-227 23 0
-227 156 0
228 23 156 0
-228 -23 0
-228 -156 0
229 227 228 0
-229 -227 0
-229 -228 0
230 -229 226 0
-230 229 0
-230 -226 0
231 229 -226 0
-231 -229 0
-231 226 0
232 231 230 0
-232 -231 0
-232 -230 0
233 -23 226 0
-233 23 0
-233 -226 0
234 226 156 0
-234 -226 0
-234 -156 0
235 -23 156 0
-235 23 0
-235 -156 0
236 234 235 0
-236 -234 0
-236 -235 0
237 -236 233 0
-237 236 0
-237 -233 0
238 -29 -167 0
-238 29 0
-238 167 0
239 29 167 0
-239 -29 0
-239 -167 0
240 239 238 0
-240 -239 0
-240 -238 0
241 -240 237 0
-241 240 0
-241 -237 0
242 240 -237 0
-242 -240 0
-242 237 0
243 241 242 0
-243 -241 0
-243 -242 0
244 -29 237 0
-244 29 0
-244 -237 0
245 237 167 0
-245 -237 0
-245 -167 0
246 -29 167 0
-246 29 0
-246 -167 0
247 245 246 0
-247 -245 0
-247 -246 0
248 244 -247 0
-248 -244 0
-248 247 0
249 -35 -178 0
-249 35 0
-249 178 0
250 35 178 0
-250 -35 0
-250 -178 0
251 250 249 0
-251 -250 0
-251 -249 0
252 -251 248 0
-252 251 0
-252 -248 0
253 251 -248 0
-253 -251 0
-253 248 0
254 253 252 0
-254 -253 0
-254 -252 0
255 -35 248 0
-255 35 0
-255 -248 0
256 178 248 0
-256 -178 0
-256 -248 0
257 -35 178 0
-257 35 0
-257 -178 0
258 256 257 0
-258 -256 0
-258 -257 0
259 -258 255 0
-259 258 0
-259 -255 0
260 -41 -172 0
-260 41 0
-260 172 0
261 41 172 0
-261 -41 0
-261 -172 0
262 261 260 0
-262 -261 0
-262 -260 0
263 -262 259 0
-263 262 0
-263 -259 0
264 262 -259 0
-264 -262 0
-264 259 0
265 264 263 0
-265 -264 0
-265 -263 0
266 -41 259 0
-266 41 0
-266 -259 0
267 259 172 0
-267 -259 0
-267 -172 0
268 -41 172 0
-268 41 0
-268 -172 0
269 267 268 0
-269 -267 0
-269 -268 0
270 -269 266 0
-270 269 0
-270 -266 0
-271 12 0
271 -12 0
-272 -181 0
272 181 0
-273 -188 0
273 188 0
-274 -199 0
274 199 0
-275 -210 0
275 210 0
-276 -221 0
276 221 0
-277 -232 0
277 232 0
-278 -243 0
278 243 0
-279 -254 0
279 254 0
-280 -265 0
280 265 0
-281 -270 0
281 270 0
271 0
272 0
273 0
274 0
275 0
-276 0
-277 0
278 0
-279 0
-280 0
-281 0
